
Gurobi 9.5.2 (win64, Python) logging started Tue May 16 16:39:42 2023

Set parameter Username
Set parameter LogFile to value "gurobi.log"
Academic license - for non-commercial use only - expires 2023-08-17
